55 55
40 3
5 22
33 23
30 13
43 24
36 4
37 26
12 19
6 26
53 19
28 12
47 2
7 9
4 23
19 11
26 18
54 27
29 22
32 10
25 18
14 3
2 16
50 17
55 8
31 21
23 17
48 27
13 15
15 14
20 12
38 8
8 28
45 15
27 10
51 7
49 4
3 24
22 25
39 1
35 16
34 20
21 5
9 5
42 1
44 20
46 9
41 14
11 21
52 13
1 7
10 11
24 2
18 25
16 6
17 6
